c Reduced graph for r05 generated by Cyril Grelier
p edge 136 1199
e 1 2
e 1 3
e 1 4
e 1 8
e 1 9
e 1 10
e 1 11
e 1 12
e 1 16
e 1 20
e 1 21
e 1 22
e 1 23
e 1 28
e 1 36
e 1 38
e 1 39
e 1 60
e 1 61
e 1 83
e 1 97
e 1 98
e 1 102
e 2 3
e 2 5
e 2 6
e 2 11
e 2 12
e 2 13
e 2 14
e 2 15
e 2 16
e 2 20
e 2 22
e 2 23
e 2 28
e 2 29
e 2 36
e 2 49
e 2 50
e 2 72
e 2 83
e 2 102
e 2 107
e 2 108
e 3 7
e 3 11
e 3 12
e 3 16
e 3 17
e 3 18
e 3 19
e 3 20
e 3 22
e 3 23
e 3 28
e 3 32
e 3 33
e 3 36
e 3 53
e 3 74
e 3 75
e 3 83
e 3 102
e 3 111
e 4 5
e 4 7
e 4 8
e 4 9
e 4 10
e 4 21
e 4 24
e 4 26
e 4 30
e 4 34
e 4 38
e 4 39
e 4 41
e 4 47
e 4 56
e 4 60
e 4 61
e 4 97
e 4 98
e 4 100
e 4 120
e 5 6
e 5 7
e 5 13
e 5 14
e 5 15
e 5 24
e 5 26
e 5 29
e 5 30
e 5 34
e 5 41
e 5 47
e 5 49
e 5 50
e 5 56
e 5 72
e 5 100
e 5 107
e 5 108
e 5 120
e 6 13
e 6 14
e 6 15
e 6 25
e 6 27
e 6 29
e 6 31
e 6 35
e 6 37
e 6 40
e 6 42
e 6 48
e 6 49
e 6 50
e 6 57
e 6 72
e 6 84
e 6 107
e 6 108
e 6 121
e 7 17
e 7 18
e 7 19
e 7 24
e 7 26
e 7 30
e 7 32
e 7 33
e 7 34
e 7 41
e 7 47
e 7 53
e 7 56
e 7 74
e 7 75
e 7 100
e 7 111
e 7 120
e 8 9
e 8 10
e 8 13
e 8 17
e 8 21
e 8 38
e 8 39
e 8 45
e 8 51
e 8 54
e 8 60
e 8 61
e 8 62
e 8 65
e 8 71
e 8 77
e 8 97
e 8 98
e 8 116
e 9 10
e 9 14
e 9 18
e 9 21
e 9 38
e 9 39
e 9 43
e 9 52
e 9 55
e 9 58
e 9 60
e 9 61
e 9 63
e 9 66
e 9 78
e 9 97
e 9 98
e 9 117
e 10 15
e 10 19
e 10 21
e 10 38
e 10 39
e 10 44
e 10 46
e 10 59
e 10 60
e 10 61
e 10 64
e 10 67
e 10 79
e 10 97
e 10 98
e 10 101
e 10 124
e 11 12
e 11 16
e 11 20
e 11 22
e 11 23
e 11 24
e 11 25
e 11 28
e 11 36
e 11 43
e 11 44
e 11 68
e 11 83
e 11 87
e 11 102
e 11 103
e 11 104
e 11 125
e 12 16
e 12 20
e 12 22
e 12 23
e 12 26
e 12 27
e 12 28
e 12 36
e 12 45
e 12 46
e 12 69
e 12 70
e 12 83
e 12 88
e 12 89
e 12 102
e 12 105
e 13 14
e 13 15
e 13 17
e 13 29
e 13 45
e 13 49
e 13 50
e 13 51
e 13 54
e 13 62
e 13 65
e 13 71
e 13 72
e 13 77
e 13 107
e 13 108
e 13 116
e 14 15
e 14 18
e 14 29
e 14 43
e 14 49
e 14 50
e 14 52
e 14 55
e 14 58
e 14 63
e 14 66
e 14 72
e 14 78
e 14 107
e 14 108
e 14 117
e 15 19
e 15 29
e 15 44
e 15 46
e 15 49
e 15 50
e 15 59
e 15 64
e 15 67
e 15 72
e 15 79
e 15 101
e 15 107
e 15 108
e 15 124
e 16 20
e 16 22
e 16 23
e 16 28
e 16 30
e 16 31
e 16 36
e 16 51
e 16 52
e 16 73
e 16 83
e 16 92
e 16 102
e 16 109
e 16 110
e 16 126
e 17 18
e 17 19
e 17 32
e 17 33
e 17 45
e 17 51
e 17 53
e 17 54
e 17 62
e 17 65
e 17 71
e 17 74
e 17 75
e 17 77
e 17 111
e 17 116
e 18 19
e 18 32
e 18 33
e 18 43
e 18 52
e 18 53
e 18 55
e 18 58
e 18 63
e 18 66
e 18 74
e 18 75
e 18 78
e 18 111
e 18 117
e 19 32
e 19 33
e 19 44
e 19 46
e 19 53
e 19 59
e 19 64
e 19 67
e 19 74
e 19 75
e 19 79
e 19 101
e 19 111
e 19 124
e 20 22
e 20 23
e 20 28
e 20 36
e 20 37
e 20 58
e 20 59
e 20 80
e 20 83
e 20 95
e 20 96
e 20 102
e 20 115
e 20 128
e 21 33
e 21 38
e 21 39
e 21 60
e 21 61
e 21 68
e 21 70
e 21 73
e 21 82
e 21 86
e 21 91
e 21 97
e 21 98
e 21 119
e 21 134
e 22 23
e 22 28
e 22 36
e 22 40
e 22 62
e 22 63
e 22 64
e 22 81
e 22 82
e 22 83
e 22 99
e 22 102
e 22 129
e 23 28
e 23 36
e 23 41
e 23 42
e 23 65
e 23 66
e 23 67
e 23 83
e 23 85
e 23 86
e 23 102
e 23 135
e 24 25
e 24 26
e 24 30
e 24 34
e 24 41
e 24 43
e 24 44
e 24 47
e 24 56
e 24 68
e 24 87
e 24 100
e 24 103
e 24 104
e 24 120
e 24 125
e 25 27
e 25 31
e 25 35
e 25 37
e 25 40
e 25 42
e 25 43
e 25 44
e 25 48
e 25 57
e 25 68
e 25 84
e 25 87
e 25 103
e 25 104
e 25 121
e 25 125
e 26 27
e 26 30
e 26 34
e 26 41
e 26 45
e 26 46
e 26 47
e 26 56
e 26 69
e 26 70
e 26 88
e 26 89
e 26 100
e 26 105
e 26 120
e 27 31
e 27 35
e 27 37
e 27 40
e 27 42
e 27 45
e 27 46
e 27 48
e 27 57
e 27 69
e 27 70
e 27 84
e 27 88
e 27 89
e 27 105
e 27 121
e 28 36
e 28 47
e 28 48
e 28 71
e 28 83
e 28 90
e 28 91
e 28 102
e 28 106
e 28 122
e 28 136
e 29 32
e 29 49
e 29 50
e 29 69
e 29 72
e 29 76
e 29 80
e 29 81
e 29 85
e 29 90
e 29 94
e 29 107
e 29 108
e 29 118
e 30 31
e 30 34
e 30 41
e 30 47
e 30 51
e 30 52
e 30 56
e 30 73
e 30 92
e 30 100
e 30 109
e 30 110
e 30 120
e 30 126
e 31 35
e 31 37
e 31 40
e 31 42
e 31 48
e 31 51
e 31 52
e 31 57
e 31 73
e 31 84
e 31 92
e 31 109
e 31 110
e 31 121
e 31 126
e 32 33
e 32 53
e 32 69
e 32 74
e 32 75
e 32 76
e 32 80
e 32 81
e 32 85
e 32 90
e 32 94
e 32 111
e 32 118
e 33 53
e 33 68
e 33 70
e 33 73
e 33 74
e 33 75
e 33 82
e 33 86
e 33 91
e 33 111
e 33 119
e 33 134
e 34 35
e 34 41
e 34 47
e 34 54
e 34 55
e 34 56
e 34 76
e 34 93
e 34 100
e 34 112
e 34 113
e 34 120
e 34 127
e 35 37
e 35 40
e 35 42
e 35 48
e 35 54
e 35 55
e 35 57
e 35 76
e 35 84
e 35 93
e 35 112
e 35 113
e 35 121
e 35 127
e 36 56
e 36 57
e 36 77
e 36 78
e 36 79
e 36 83
e 36 94
e 36 102
e 36 114
e 37 40
e 37 42
e 37 48
e 37 57
e 37 58
e 37 59
e 37 80
e 37 84
e 37 95
e 37 96
e 37 115
e 37 121
e 37 128
e 38 39
e 38 49
e 38 53
e 38 60
e 38 61
e 38 87
e 38 88
e 38 95
e 38 97
e 38 98
e 38 99
e 38 106
e 38 130
e 39 50
e 39 60
e 39 61
e 39 89
e 39 92
e 39 93
e 39 96
e 39 97
e 39 98
e 39 114
e 39 123
e 39 131
e 40 42
e 40 48
e 40 57
e 40 62
e 40 63
e 40 64
e 40 81
e 40 82
e 40 84
e 40 99
e 40 121
e 40 129
e 41 42
e 41 47
e 41 56
e 41 65
e 41 66
e 41 67
e 41 85
e 41 86
e 41 100
e 41 120
e 41 135
e 42 48
e 42 57
e 42 65
e 42 66
e 42 67
e 42 84
e 42 85
e 42 86
e 42 121
e 42 135
e 43 44
e 43 52
e 43 55
e 43 58
e 43 63
e 43 66
e 43 68
e 43 78
e 43 87
e 43 103
e 43 104
e 43 117
e 43 125
e 44 46
e 44 59
e 44 64
e 44 67
e 44 68
e 44 79
e 44 87
e 44 101
e 44 103
e 44 104
e 44 124
e 44 125
e 45 46
e 45 51
e 45 54
e 45 62
e 45 65
e 45 69
e 45 70
e 45 71
e 45 77
e 45 88
e 45 89
e 45 105
e 45 116
e 46 59
e 46 64
e 46 67
e 46 69
e 46 70
e 46 79
e 46 88
e 46 89
e 46 101
e 46 105
e 46 124
e 47 48
e 47 56
e 47 71
e 47 90
e 47 91
e 47 100
e 47 106
e 47 120
e 47 122
e 47 136
e 48 57
e 48 71
e 48 84
e 48 90
e 48 91
e 48 106
e 48 121
e 48 122
e 48 136
e 49 50
e 49 53
e 49 72
e 49 87
e 49 88
e 49 95
e 49 99
e 49 106
e 49 107
e 49 108
e 49 130
e 50 72
e 50 89
e 50 92
e 50 93
e 50 96
e 50 107
e 50 108
e 50 114
e 50 123
e 50 131
e 51 52
e 51 54
e 51 62
e 51 65
e 51 71
e 51 73
e 51 77
e 51 92
e 51 109
e 51 110
e 51 116
e 51 126
e 52 55
e 52 58
e 52 63
e 52 66
e 52 73
e 52 78
e 52 92
e 52 109
e 52 110
e 52 117
e 52 126
e 53 74
e 53 75
e 53 87
e 53 88
e 53 95
e 53 99
e 53 106
e 53 111
e 53 130
e 54 55
e 54 62
e 54 65
e 54 71
e 54 76
e 54 77
e 54 93
e 54 112
e 54 113
e 54 116
e 54 127
e 55 58
e 55 63
e 55 66
e 55 76
e 55 78
e 55 93
e 55 112
e 55 113
e 55 117
e 55 127
e 56 57
e 56 77
e 56 78
e 56 79
e 56 94
e 56 100
e 56 114
e 56 120
e 57 77
e 57 78
e 57 79
e 57 84
e 57 94
e 57 114
e 57 121
e 58 59
e 58 63
e 58 66
e 58 78
e 58 80
e 58 95
e 58 96
e 58 115
e 58 117
e 58 128
e 59 64
e 59 67
e 59 79
e 59 80
e 59 95
e 59 96
e 59 101
e 59 115
e 59 124
e 59 128
e 60 61
e 60 74
e 60 97
e 60 98
e 60 103
e 60 105
e 60 109
e 60 112
e 60 122
e 60 132
e 61 72
e 61 75
e 61 97
e 61 98
e 61 104
e 61 110
e 61 113
e 61 115
e 61 133
e 62 63
e 62 64
e 62 65
e 62 71
e 62 77
e 62 81
e 62 82
e 62 99
e 62 116
e 62 129
e 63 64
e 63 66
e 63 78
e 63 81
e 63 82
e 63 99
e 63 117
e 63 129
e 64 67
e 64 79
e 64 81
e 64 82
e 64 99
e 64 101
e 64 124
e 64 129
e 65 66
e 65 67
e 65 71
e 65 77
e 65 85
e 65 86
e 65 116
e 65 135
e 66 67
e 66 78
e 66 85
e 66 86
e 66 117
e 66 135
e 67 79
e 67 85
e 67 86
e 67 101
e 67 124
e 67 135
e 68 70
e 68 73
e 68 82
e 68 86
e 68 87
e 68 91
e 68 103
e 68 104
e 68 119
e 68 125
e 68 134
e 69 70
e 69 76
e 69 80
e 69 81
e 69 85
e 69 88
e 69 89
e 69 90
e 69 94
e 69 105
e 69 118
e 70 73
e 70 82
e 70 86
e 70 88
e 70 89
e 70 91
e 70 105
e 70 119
e 70 134
e 71 77
e 71 90
e 71 91
e 71 106
e 71 116
e 71 122
e 71 136
e 72 75
e 72 104
e 72 107
e 72 108
e 72 110
e 72 113
e 72 115
e 72 133
e 73 82
e 73 86
e 73 91
e 73 92
e 73 109
e 73 110
e 73 119
e 73 126
e 73 134
e 74 75
e 74 103
e 74 105
e 74 109
e 74 111
e 74 112
e 74 122
e 74 132
e 75 104
e 75 110
e 75 111
e 75 113
e 75 115
e 75 133
e 76 80
e 76 81
e 76 85
e 76 90
e 76 93
e 76 94
e 76 112
e 76 113
e 76 118
e 76 127
e 77 78
e 77 79
e 77 94
e 77 114
e 77 116
e 78 79
e 78 94
e 78 114
e 78 117
e 79 94
e 79 101
e 79 114
e 79 124
e 80 81
e 80 85
e 80 90
e 80 94
e 80 95
e 80 96
e 80 115
e 80 118
e 80 128
e 81 82
e 81 85
e 81 90
e 81 94
e 81 99
e 81 118
e 81 129
e 82 86
e 82 91
e 82 99
e 82 119
e 82 129
e 82 134
e 83 100
e 83 102
e 83 116
e 83 117
e 83 130
e 83 131
e 84 101
e 84 118
e 84 119
e 84 121
e 84 123
e 84 132
e 84 133
e 85 86
e 85 90
e 85 94
e 85 118
e 85 135
e 86 91
e 86 119
e 86 134
e 86 135
e 87 88
e 87 95
e 87 99
e 87 103
e 87 104
e 87 106
e 87 125
e 87 130
e 88 89
e 88 95
e 88 99
e 88 105
e 88 106
e 88 130
e 89 92
e 89 93
e 89 96
e 89 105
e 89 114
e 89 123
e 89 131
e 90 91
e 90 94
e 90 106
e 90 118
e 90 122
e 90 136
e 91 106
e 91 119
e 91 122
e 91 134
e 91 136
e 92 93
e 92 96
e 92 109
e 92 110
e 92 114
e 92 123
e 92 126
e 92 131
e 93 96
e 93 112
e 93 113
e 93 114
e 93 123
e 93 127
e 93 131
e 94 114
e 94 118
e 95 96
e 95 99
e 95 106
e 95 115
e 95 128
e 95 130
e 96 114
e 96 115
e 96 123
e 96 128
e 96 131
e 97 98
e 97 107
e 97 126
e 97 128
e 97 135
e 97 136
e 98 108
e 98 111
e 98 125
e 98 127
e 98 129
e 99 106
e 99 129
e 99 130
e 100 116
e 100 117
e 100 120
e 100 130
e 100 131
e 101 118
e 101 119
e 101 123
e 101 124
e 101 132
e 101 133
e 102 120
e 102 121
e 102 124
e 102 134
e 103 104
e 103 105
e 103 109
e 103 112
e 103 122
e 103 125
e 103 132
e 104 110
e 104 113
e 104 115
e 104 125
e 104 133
e 105 109
e 105 112
e 105 122
e 105 132
e 106 122
e 106 130
e 106 136
e 107 108
e 107 126
e 107 128
e 107 135
e 107 136
e 108 111
e 108 125
e 108 127
e 108 129
e 109 110
e 109 112
e 109 122
e 109 126
e 109 132
e 110 113
e 110 115
e 110 126
e 110 133
e 111 125
e 111 127
e 111 129
e 112 113
e 112 122
e 112 127
e 112 132
e 113 115
e 113 127
e 113 133
e 114 123
e 114 131
e 115 128
e 115 133
e 116 117
e 116 130
e 116 131
e 117 130
e 117 131
e 118 119
e 118 123
e 118 132
e 118 133
e 119 123
e 119 132
e 119 133
e 119 134
e 120 121
e 120 124
e 120 134
e 121 124
e 121 134
e 122 132
e 122 136
e 123 131
e 123 132
e 123 133
e 124 134
e 125 127
e 125 129
e 126 128
e 126 135
e 126 136
e 127 129
e 128 135
e 128 136
e 130 131
e 132 133
e 135 136
